<number of tasks>
100

<cycle time>
1000

<order strength>
0.597


<task times>
1 67
2 118
3 99
4 117
5 49
6 110
7 78
8 124
9 196
10 233
11 322
12 221
13 198
14 97
15 245
16 297
17 232
18 117
19 112
20 275
21 38
22 201
23 90
24 66
25 187
26 95
27 337
28 102
29 132
30 185
31 217
32 94
33 134
34 57
35 234
36 35
37 106
38 30
39 142
40 99
41 107
42 23
43 54
44 56
45 40
46 111
47 236
48 33
49 53
50 60
51 138
52 29
53 202
54 98
55 49
56 187
57 181
58 81
59 237
60 201
61 235
62 100
63 168
64 36
65 273
66 180
67 148
68 78
69 140
70 86
71 183
72 165
73 224
74 117
75 95
76 71
77 88
78 129
79 113
80 108
81 216
82 29
83 198
84 77
85 149
86 103
87 84
88 51
89 162
90 157
91 113
92 38
93 81
94 33
95 91
96 37
97 164
98 171
99 198
100 59

<precedence relations>
1,66
2,66
3,37
4,37
5,23
6,23
7,8
7,9
7,10
7,11
8,37
9,23
10,23
11,12
11,13
11,14
11,15
12,37
13,23
14,16
14,18
14,19
15,16
15,17
15,18
15,19
16,66
17,23
18,20
18,21
18,22
18,24
18,25
18,26
19,20
19,21
19,22
19,23
19,24
19,25
19,26
20,66
21,66
22,78
23,27
23,28
23,29
23,30
23,31
23,32
23,33
23,34
24,27
24,34
24,35
24,36
24,38
25,27
25,34
25,35
25,36
25,38
26,36
26,39
26,53
26,54
27,37
28,53
28,54
28,55
28,59
29,35
29,36
29,50
30,35
30,36
30,48
30,49
31,38
31,60
32,45
32,54
32,56
32,58
32,61
32,62
32,74
33,48
33,52
34,51
35,66
36,78
37,39
37,40
37,41
37,42
37,43
37,44
37,45
37,46
38,39
39,66
40,48
40,52
40,54
41,54
41,64
41,66
41,67
42,48
42,54
43,58
43,63
44,53
44,60
45,65
45,66
46,47
46,49
46,50
47,66
48,51
48,53
48,55
49,51
49,52
49,53
49,54
50,51
50,52
50,53
51,57
51,59
51,60
52,56
52,59
52,62
53,56
53,58
53,65
54,93
55,60
56,66
57,78
58,78
59,93
60,61
60,62
60,63
60,64
60,65
61,66
62,93
63,67
63,68
63,80
65,68
65,95
66,69
66,70
66,71
66,72
66,73
66,76
67,74
67,75
68,77
68,94
69,79
69,81
70,80
71,79
72,83
73,95
74,78
75,93
76,79
77,82
78,84
78,85
78,86
78,87
78,88
78,89
78,90
78,91
78,92
78,95
79,93
80,93
81,93
83,93
83,94
93,96
93,97
93,98
93,99
93,100

<end>
